8
1	509	501	312	1019	736	656	60	
509	1	126	474	1526	1226	1133	532
501	126	1	541	1516	1184	1084	536
312	474	541	1	1157	980	919	271
1019	1526	1516	1157	1	478	583	996
736	1226	1184	980	478	1	115	740
656	1133	1084	919	583	115	1	667
60	532	536	271	996	740	667	1
